1892617
1872667
1852735
1832945
1813228
1793551
1773882
1754227
1734668
1715191
1695768
1676823
1658115
1639411
1620829
1602280
1583772
1565440
1547109
1528894
1510790
1492702
1474700
1456771
1438934
1421148
1403362
1385581
1367885
1350264
1332674
1315200
1297885
1280709
1263564
1246449
1229526
1212779
1196057
1179443
1162855
1146355
1129935
1113539
1097923
1082338
1066957
1051673
1036394
1021152
1006024
990956
975937
960986
946093
931283
916492
901861
887359
872875
858416
844154
830105
816251
802646
789194
775896
762665
749453
736297
723171
710116
697164
684330
671634
658978
646535
634169
621832
609584
597404
585280
573309
561367
549431
537657
525923
